\ LP format - for model browsing. Use MPS format to capture full model detail.
Minimize
  zeta_sub_3
Subject To
 R0: zeta_sub_3 - 1.636474463e+09 y_3_0 - 1.124469194e+09 y_3_1
   - 1.662345291e+09 y_3_2 - 1.591057798e+09 y_3_3 - 6.14407864e+08 y_3_4
   - 1.154395197e+09 y_3_5 - 1.336727308e+09 y_3_6 - 4.77917164e+08 y_3_7
   - 1.185735681e+09 y_3_8 - 1.455735474e+09 y_3_9 - 8.92123013e+08 y_3_10
   - 1.672582529e+09 y_3_11 - 5.85938137e+08 y_3_12
   - 1.810638944e+09 y_3_13 - 4.95571499e+08 y_3_14 - 9.8781922e+08 y_3_15
   - 1.425018731e+09 y_3_16 - 2.95849079e+08 y_3_17 - 5.5395961e+08 y_3_18
   - 6.8450809e+08 y_3_19 - 8.94177717e+08 y_3_20 - 1.644215979e+09 y_3_21
   - 8.1677744e+07 y_3_22 - 1.677981324e+09 y_3_23 - 1.159608628e+09 y_3_24
   - 1.056161371e+09 y_3_25 - 1.417463751e+09 y_3_26
   - 9.83200311e+08 y_3_27 - 8.3188971e+07 y_3_28 - 1.416163186e+09 y_3_29
   - 1.183244343e+09 y_3_30 - 6.1121349e+07 y_3_31 - 6.7723949e+07 y_3_32
   - 1.297427029e+09 y_3_33 - 7.96848099e+08 y_3_34
   - 1.814614862e+09 y_3_35 - 2.64797537e+08 y_3_36
   - 1.068277287e+09 y_3_37 - 6.40753422e+08 y_3_38 - 4.80031565e+08 y_3_39
   - 4.39447937e+08 y_3_40 - 9.62339146e+08 y_3_41 - 7.3807649e+08 y_3_42
   - 6.47989131e+08 y_3_43 - 1.704112072e+09 y_3_44 - 1.05460914e+09 y_3_45
   - 1.128046332e+09 y_3_46 - 9.07256949e+08 y_3_47
   - 1.785179653e+09 y_3_48 - 1.586720724e+09 y_3_49
   - 1.34523899e+09 y_3_50 - 1.690373606e+09 y_3_51
   - 1.017334712e+09 y_3_52 - 7.1282808e+07 y_3_53 - 1.620454974e+09 y_3_54
   - 1.182046776e+09 y_3_55 - 6.91483781e+08 y_3_56 - 9.59109925e+08 y_3_57
   - 1.223770843e+09 y_3_58 - 1.211530991e+09 y_3_59
   - 1.407262192e+09 y_3_60 - 1.302150177e+09 y_3_61
   - 9.43203292e+08 y_3_62 - 1.215079898e+09 y_3_63
   - 1.461420811e+09 y_3_64 - 1.591297608e+09 y_3_65
   - 1.21924314e+08 y_3_66 - 5.96518811e+08 y_3_67 - 1.239735599e+09 y_3_68
   - 5.41614865e+08 y_3_69 - 6.55572655e+08 y_3_70 >= 0
 R1: y_3_29 + y_3_30 + y_3_31 + y_3_32 + y_3_33 + y_3_34 + y_3_35 + y_3_36
   + y_3_37 + y_3_38 = 1
 R2: y_3_53 + y_3_54 + y_3_55 + y_3_56 + y_3_57 + y_3_58 + y_3_59 + y_3_60
   = 0
 R3: - y_3_29 + y_3_39 + y_3_40 + y_3_41 + y_3_42 + y_3_43 + y_3_44
   + y_3_45 + y_3_46 + y_3_47 = 0
 R4: y_3_6 + y_3_7 + y_3_8 + y_3_9 + y_3_10 + y_3_11 + y_3_12 + y_3_13
   + y_3_14 - y_3_36 = 0
 R5: - y_3_6 + y_3_15 + y_3_16 + y_3_17 + y_3_18 + y_3_19 + y_3_20 - y_3_34
   - y_3_42 - y_3_59 = 0
 R6: - y_3_12 - y_3_30 - y_3_40 + y_3_48 + y_3_49 + y_3_50 + y_3_51
   + y_3_52 - y_3_56 = 0
 R7: y_3_0 + y_3_1 + y_3_2 + y_3_3 + y_3_4 - y_3_10 - y_3_38 - y_3_46
   - y_3_53 = 0
 R8: - y_3_33 - y_3_43 + y_3_63 + y_3_64 + y_3_65 = 0
 R9: - y_3_1 - y_3_17 - y_3_52 - y_3_57 + y_3_66 + y_3_67 + y_3_68 + y_3_69
   = 0
 R10: - y_3_4 - y_3_9 - y_3_15 + y_3_21 + y_3_22 + y_3_23 - y_3_37 - y_3_45
   - y_3_50 = 0
 R11: - y_3_3 - y_3_7 - y_3_21 + y_3_26 + y_3_27 - y_3_35 - y_3_48 - y_3_63
   - y_3_68 = 0
 R12: - y_3_13 - y_3_32 - y_3_39 - y_3_51 + y_3_61 + y_3_62 - y_3_65
   - y_3_66 = 0
 R13: - y_3_11 + y_3_24 + y_3_25 - y_3_54 = 0
 R14: - y_3_20 - y_3_22 - y_3_44 - y_3_60 - y_3_61 - y_3_64 - y_3_69
   + y_3_70 = 0
 R15: - y_3_2 - y_3_14 - y_3_18 - y_3_25 + y_3_28 - y_3_31 - y_3_41
   - y_3_58 - y_3_67 = 0
 R16: - y_3_0 + y_3_5 - y_3_16 - y_3_26 - y_3_47 - y_3_55 - y_3_62 = 0
 R17: - y_3_5 - y_3_8 - y_3_19 - y_3_23 - y_3_24 - y_3_27 - y_3_28 - y_3_49
   - y_3_70 = -1
Bounds
 y_3_0 <= 1
 y_3_1 <= 1
 y_3_2 <= 1
 y_3_3 <= 1
 y_3_4 <= 1
 y_3_5 <= 1
 y_3_6 <= 1
 y_3_7 <= 1
 y_3_8 <= 1
 y_3_9 <= 1
 y_3_10 <= 1
 y_3_11 <= 1
 y_3_12 <= 1
 y_3_13 <= 1
 y_3_14 <= 1
 y_3_15 <= 1
 y_3_16 <= 1
 y_3_17 <= 1
 y_3_18 <= 1
 y_3_19 <= 1
 y_3_20 <= 1
 y_3_21 <= 1
 y_3_22 <= 1
 y_3_23 <= 1
 y_3_24 <= 1
 y_3_25 <= 1
 y_3_26 <= 1
 y_3_27 <= 1
 y_3_28 <= 1
 y_3_29 <= 1
 y_3_30 <= 1
 y_3_31 <= 1
 y_3_32 <= 1
 y_3_33 <= 1
 y_3_34 <= 1
 y_3_35 <= 1
 y_3_36 <= 1
 y_3_37 <= 1
 y_3_38 <= 1
 y_3_39 <= 1
 y_3_40 <= 1
 y_3_41 <= 1
 y_3_42 <= 1
 y_3_43 <= 1
 y_3_44 <= 1
 y_3_45 <= 1
 y_3_46 <= 1
 y_3_47 <= 1
 y_3_48 <= 1
 y_3_49 <= 1
 y_3_50 <= 1
 y_3_51 <= 1
 y_3_52 <= 1
 y_3_53 <= 1
 y_3_54 <= 1
 y_3_55 <= 1
 y_3_56 <= 1
 y_3_57 <= 1
 y_3_58 <= 1
 y_3_59 <= 1
 y_3_60 <= 1
 y_3_61 <= 1
 y_3_62 <= 1
 y_3_63 <= 1
 y_3_64 <= 1
 y_3_65 <= 1
 y_3_66 <= 1
 y_3_67 <= 1
 y_3_68 <= 1
 y_3_69 <= 1
 y_3_70 <= 1
End
